# Solution for model GasLib-40
# Objective value = 38.3202605753131
loadshed[innode_1] 0
loadshed[innode_2] 0
loadshed[innode_3] 0
loadshed[innode_4] 0
loadshed[innode_5] 0
loadshed[innode_6] 0
loadshed[innode_7] 0
loadshed[innode_8] 0
loadshed[source_1] -1.3697389654279335e-01
loadshed[source_2] 2.6317414334161127e-02
loadshed[source_3] 0.353051277852924
loadshed[sink_1] 0
loadshed[sink_2] 0
loadshed[sink_3] 0
loadshed[sink_4] 0
loadshed[sink_5] 0
loadshed[sink_6] 0
loadshed[sink_7] 0
loadshed[sink_8] 0
loadshed[sink_9] 0
loadshed[sink_10] 0
loadshed[sink_11] 0
loadshed[sink_12] 1
loadshed[sink_13] 0
loadshed[sink_14] 0
loadshed[sink_15] 0
loadshed[sink_16] 0
loadshed[sink_17] 0
loadshed[sink_18] 0
loadshed[sink_19] 0
loadshed[sink_20] 0
loadshed[sink_21] 1
loadshed[sink_22] 0
loadshed[sink_23] 0
loadshed[sink_24] 3.4314969122933564e-01
loadshed[sink_25] 0
loadshed[sink_26] 0
loadshed[sink_27] 0
loadshed[sink_28] 0
loadshed[sink_29] 0
flow[source_1,sink_3] 1.7974451913053258e+02
flow[innode_1,sink_16] 1.6354166666666970e+01
flow[innode_6,sink_13] 1.2202863474470561e+01
flow[sink_13,sink_14] -4.1513031921961066e+00
flow[sink_14,sink_10] -2.0505469858862774e+01
flow[sink_25,sink_26] 1.3401766930839017e+02
flow[sink_26,sink_9] 3.2708333333334551e+01
flow[sink_9,sink_18] 1.6354166666667879e+01
flow[sink_26,sink_4] 8.4955169308388918e+01
flow[sink_4,sink_20] 0
flow[sink_18,sink_6] 0
flow[sink_25,innode_8] -1.4703618579719623e+02
flow[sink_6,sink_7] -4.9062500000000313e+01
flow[sink_6,sink_22] 3.2708333333333641e+01
flow[sink_7,sink_24] 1.0742239424686909e+01
flow[sink_22,sink_1] 1.6354166666666970e+01
flow[sink_24,sink_21] 0
flow[sink_21,sink_12] 0
flow[sink_7,sink_5] -7.6158906091353884e+01
flow[sink_5,sink_17] -9.2513072758020556e+01
flow[sink_17,sink_4] -6.8601002641722232e+01
flow[sink_17,sink_8] -4.0266236782965009e+01
flow[sink_3,sink_23] 16.3541666666697
flow[sink_8,sink_20] -5.6620403449631681e+01
flow[sink_25,sink_20] 7.2974570116298338e+01
flow[sink_25,sink_15] -8.8513083768629485e+01
flow[sink_15,sink_29] -5.8954541494324481e+01
flow[sink_29,sink_28] 1.6354166666667879e+01
flow[sink_29,sink_2] 6.2266875607638347e+01
flow[sink_2,sink_15] 4.5912708940971683e+01
flow[sink_29,innode_7] -1.5392975043529736e+02
flow[innode_4,sink_19] 8.5922136525529908e+01
flow[sink_19,innode_3] 3.3948875644883820e+01
flow[innode_4,innode_5] 1.6354166666679703e+01
flow[sink_27,innode_5] -1.6354166666679703e+01
flow[sink_27,sink_19] 0
flow[sink_10,sink_11] 3.2708333333333641e+01
flow[sink_10,innode_2] -3.5619094213979260e+01
flow[sink_10,innode_3] -3.3948875644883820e+01
flow[innode_6,sink_25] -1.2202863474470561e+01
flow[sink_11,innode_1] 1.6354166666666970e+01
flow[sink_19,innode_2] 3.5619094213979260e+01
flow[source_3,innode_4] 1.0227630319220961e+02
flow[source_2,innode_7] 1.5392975043529736e+02
flow[sink_3,innode_8] 1.4703618579719623e+02
pressure[innode_1] 7.5498007770009607e+01
pressure[innode_2] 7.7532325318499119e+01
pressure[innode_3] 7.7457149377676657e+01
pressure[innode_4] 81.01325
pressure[innode_5] 8.1002000741808772e+01
pressure[innode_6] 7.4739672382333964e+01
pressure[innode_7] 81.01325
pressure[innode_8] 8.0412432737441762e+01
pressure[source_1] 81.01325
pressure[source_2] 81.01325
pressure[source_3] 81.01325
pressure[sink_1] 1.0537724936609425e+01
pressure[sink_2] 7.5318941963387488e+01
pressure[sink_3] 8.0412432737441762e+01
pressure[sink_4] 5.4499466537494335e+01
pressure[sink_5] 4.4986207204565659e+01
pressure[sink_6] 1.2638802546996798e+01
pressure[sink_7] 1.3312313724696930e+01
pressure[sink_8] 53.3971121442737
pressure[sink_9] 6.3343208469272014e+01
pressure[sink_10] 7.5649709077613153e+01
pressure[sink_11] 7.5498007770009607e+01
pressure[sink_12] 1.01325
pressure[sink_13] 7.4672400035287140e+01
pressure[sink_14] 7.4679829145962415e+01
pressure[sink_15] 7.5169047087693272e+01
pressure[sink_16] 7.4476357935191928e+01
pressure[sink_17] 5.1877762421341643e+01
pressure[sink_18] 6.2751465975472314e+01
pressure[sink_19] 7.7532325318499119e+01
pressure[sink_20] 5.7342757996632827e+01
pressure[sink_21] 1.01325
pressure[sink_22] 1.1601494078964436e+01
pressure[sink_23] 8.0247714725781975e+01
pressure[sink_24] 1.01325
pressure[sink_25] 7.4739672382333964e+01
pressure[sink_26] 6.5300886637156623e+01
pressure[sink_27] 8.0866291377726043e+01
pressure[sink_28] 7.6600949921343130e+01
pressure[sink_29] 7.6896232194960319e+01
interdiction[source_1,sink_3] 0
interdiction[innode_1,sink_16] 0
interdiction[innode_6,sink_13] 0
interdiction[sink_13,sink_14] 0
interdiction[sink_14,sink_10] 0
interdiction[sink_25,sink_26] 0
interdiction[sink_26,sink_9] 0
interdiction[sink_9,sink_18] 0
interdiction[sink_26,sink_4] 0
interdiction[sink_4,sink_20] 1
interdiction[sink_18,sink_6] 1
interdiction[sink_25,innode_8] 0
interdiction[sink_6,sink_7] 0
interdiction[sink_6,sink_22] 0
interdiction[sink_7,sink_24] 0
interdiction[sink_22,sink_1] 0
interdiction[sink_24,sink_21] 0
interdiction[sink_21,sink_12] 0
interdiction[sink_7,sink_5] 0
interdiction[sink_5,sink_17] 0
interdiction[sink_17,sink_4] 0
interdiction[sink_17,sink_8] 0
interdiction[sink_3,sink_23] 0
interdiction[sink_8,sink_20] 0
interdiction[sink_25,sink_20] 0
interdiction[sink_25,sink_15] 0
interdiction[sink_15,sink_29] 0
interdiction[sink_29,sink_28] 0
interdiction[sink_29,sink_2] 0
interdiction[sink_2,sink_15] 0
interdiction[sink_29,innode_7] 0
interdiction[innode_4,sink_19] 0
interdiction[sink_19,innode_3] 0
interdiction[innode_4,innode_5] 0
interdiction[sink_27,innode_5] 0
interdiction[sink_27,sink_19] 1
interdiction[sink_10,sink_11] 0
interdiction[sink_10,innode_2] 0
interdiction[sink_10,innode_3] 0
interdiction[innode_6,sink_25] 0
interdiction[sink_11,innode_1] 0
interdiction[sink_19,innode_2] 0
interdiction[source_3,innode_4] 0
interdiction[source_2,innode_7] 0
interdiction[sink_3,innode_8] 0
WCcheckFlow[source_1,sink_3] 39
WCcheckFlow[innode_1,sink_16] 1
WCcheckFlow[innode_6,sink_13] 13
WCcheckFlow[sink_13,sink_14] 12
WCcheckFlow[sink_14,sink_10] 11
WCcheckFlow[sink_25,sink_26] 15
WCcheckFlow[sink_26,sink_9] 2
WCcheckFlow[sink_9,sink_18] 1
WCcheckFlow[sink_26,sink_4] 12
WCcheckFlow[sink_4,sink_20] 0
WCcheckFlow[sink_18,sink_6] 0
WCcheckFlow[sink_25,innode_8] -36
WCcheckFlow[sink_6,sink_7] -3
WCcheckFlow[sink_6,sink_22] 2
WCcheckFlow[sink_7,sink_24] 3
WCcheckFlow[sink_22,sink_1] 1
WCcheckFlow[sink_24,sink_21] 2
WCcheckFlow[sink_21,sink_12] 1
WCcheckFlow[sink_7,sink_5] -7
WCcheckFlow[sink_5,sink_17] -8
WCcheckFlow[sink_17,sink_4] -11
WCcheckFlow[sink_17,sink_8] 2
WCcheckFlow[sink_3,sink_23] 1
WCcheckFlow[sink_8,sink_20] 1
WCcheckFlow[sink_25,sink_20] 0
WCcheckFlow[sink_25,sink_15] 6
WCcheckFlow[sink_15,sink_29] 5
WCcheckFlow[sink_29,sink_28] 1
WCcheckFlow[sink_29,sink_2] 1
WCcheckFlow[sink_2,sink_15] 0
WCcheckFlow[sink_29,innode_7] 2
WCcheckFlow[innode_4,sink_19] -4
WCcheckFlow[sink_19,innode_3] -5
WCcheckFlow[innode_4,innode_5] 2
WCcheckFlow[sink_27,innode_5] -1
WCcheckFlow[sink_27,sink_19] 0
WCcheckFlow[sink_10,sink_11] 3
WCcheckFlow[sink_10,innode_2] 1
WCcheckFlow[sink_10,innode_3] 6
WCcheckFlow[innode_6,sink_25] -14
WCcheckFlow[sink_11,innode_1] 2
WCcheckFlow[sink_19,innode_2] 0
WCcheckFlow[source_3,innode_4] -1
WCcheckFlow[source_2,innode_7] -1
WCcheckFlow[sink_3,innode_8] 37
